100 8
521 634
233 206
904 453
538 390
436 509
456 634
496 215
627 444
947 499
330 375
302 607
558 161
132 320
855 385
390 300
206 197
236 751
638 614
492 829
164 600
790 328
304 675
798 210
561 669
300 445
427 683
341 625
477 156
726 247
287 88
922 625
678 79
192 338
394 797
458 294
187 701
121 371
722 480
423 584
495 505
752 465
833 552
210 126
213 673
913 404
282 344
277 300
224 468
542 278
354 502
613 426
237 57
429 537
430 340
82 793
529 584
437 319
294 619
804 585
687 63
843 577
259 302
114 120
956 417
233 701
748 681
867 442
122 63
641 599
169 502
453 824
320 597
364 201
134 474
490 344
854 644
105 741
843 340
142 136
571 257
514 312
579 445
445 746
286 379
642 478
447 832
824 79
302 672
859 466
511 183
95 40
904 408
560 602
204 517
874 304
450 319
478 322
555 582
603 384
698 439
